CPXPARAM_Emphasis_MIP#P8#1#3.965811#0.712538
CPXPARAM_Emphasis_MIP#P8#3#2.249594#0.404185
CPXPARAM_Emphasis_MIP#P8#5#3.328593#0.598049
CPXPARAM_MIP_Cuts_GUBCovers#P17#0#5.565756#1.000000
CPXPARAM_MIP_Cuts_GUBCovers#P17#1#3.458176#0.621331
CPXPARAM_MIP_Cuts_GUBCovers#P17#2#5.277706#0.948246
CPXPARAM_MIP_Limits_ProbeTime#P28#60#2.028908#0.364534
CPXPARAM_MIP_Limits_ProbeTime#P28#-2147483648#4.694457#0.843454
